centroides = 0;
nNurses = 104;
hours = 39;
demand = [0 13 14 20 25 4 23 18 12 4 12 16 19 0 25 6 19 25 18 21 18 24 12 19 13 14 11 4 12 3 6 2 10 0 20 6 0 14 5];
minHours = 6;
maxHours = 21;
maxConsec = 20;
maxPresence = 32;